(set-info :smt-lib-version 2.6)
(set-logic QF_UFLRA)
(set-info :source |
MathSat group

|)
(set-info :category "random")
(set-info :status sat)
(declare-fun x0 () Real)
(declare-fun x1 () Real)
(declare-fun x2 () Real)
(declare-fun x3 () Real)
(declare-fun x4 () Real)
(declare-fun x5 () Real)
(declare-fun x6 () Real)
(declare-fun x7 () Real)
(declare-fun x8 () Real)
(declare-fun x9 () Real)
(declare-fun x10 () Real)
(declare-fun x11 () Real)
(declare-fun x12 () Real)
(declare-fun x13 () Real)
(declare-fun x14 () Real)
(declare-fun x15 () Real)
(declare-fun x16 () Real)
(declare-fun x17 () Real)
(declare-fun x18 () Real)
(declare-fun x19 () Real)
(declare-fun x20 () Real)
(declare-fun x21 () Real)
(declare-fun x22 () Real)
(declare-fun x23 () Real)
(declare-fun x24 () Real)
(declare-fun x25 () Real)
(declare-fun x26 () Real)
(declare-fun x27 () Real)
(declare-fun x28 () Real)
(declare-fun x29 () Real)
(declare-fun x30 () Real)
(declare-fun x31 () Real)
(declare-fun x32 () Real)
(declare-fun x33 () Real)
(declare-fun x34 () Real)
(declare-fun x35 () Real)
(declare-fun x36 () Real)
(declare-fun x37 () Real)
(declare-fun x38 () Real)
(declare-fun x39 () Real)
(declare-fun x40 () Real)
(declare-fun x41 () Real)
(declare-fun x42 () Real)
(declare-fun x43 () Real)
(declare-fun x44 () Real)
(declare-fun x45 () Real)
(declare-fun x46 () Real)
(declare-fun x47 () Real)
(declare-fun x48 () Real)
(declare-fun x49 () Real)
(declare-fun f0_1 (Real) Real)
(declare-fun f0_2 (Real Real) Real)
(declare-fun f0_3 (Real Real Real) Real)
(declare-fun f0_4 (Real Real Real Real) Real)
(declare-fun P0 () Bool)
(declare-fun P1 () Bool)
(declare-fun P2 () Bool)
(declare-fun P3 () Bool)
(declare-fun P4 () Bool)
(declare-fun P5 () Bool)
(declare-fun P6 () Bool)
(declare-fun P7 () Bool)
(declare-fun P8 () Bool)
(declare-fun P9 () Bool)
(declare-fun P10 () Bool)
(declare-fun P11 () Bool)
(declare-fun P12 () Bool)
(declare-fun P13 () Bool)
(declare-fun P14 () Bool)
(declare-fun P15 () Bool)
(declare-fun P16 () Bool)
(declare-fun P17 () Bool)
(declare-fun P18 () Bool)
(declare-fun P19 () Bool)
(declare-fun P20 () Bool)
(declare-fun P21 () Bool)
(declare-fun P22 () Bool)
(declare-fun P23 () Bool)
(declare-fun P24 () Bool)
(declare-fun P25 () Bool)
(declare-fun P26 () Bool)
(declare-fun P27 () Bool)
(declare-fun P28 () Bool)
(declare-fun P29 () Bool)
(declare-fun P30 () Bool)
(declare-fun P31 () Bool)
(declare-fun P32 () Bool)
(declare-fun P33 () Bool)
(declare-fun P34 () Bool)
(declare-fun P35 () Bool)
(declare-fun P36 () Bool)
(declare-fun P37 () Bool)
(declare-fun P38 () Bool)
(declare-fun P39 () Bool)
(declare-fun P40 () Bool)
(declare-fun P41 () Bool)
(declare-fun P42 () Bool)
(declare-fun P43 () Bool)
(declare-fun P44 () Bool)
(declare-fun P45 () Bool)
(declare-fun P46 () Bool)
(declare-fun P47 () Bool)
(declare-fun P48 () Bool)
(declare-fun P49 () Bool)
(assert (let ((?v_180 (= (- (+ (* 2 x25) (* 3 x31)) (* 20 x26)) 0)) (?v_15 (<= (- (- (* 18 x33) (* 13 x33)) (* 27 x33)) 3)) (?v_102 (< (- (+ (* 18 x9) (* 15 x13)) (* 22 x1)) 2)) (?v_49 (* 22 x4)) (?v_70 (* 26 x18)) (?v_141 (* 11 x24)) (?v_39 (* 26 x34)) (?v_31 (<= (- (+ (* 2 x40) (* 20 x41)) (* 21 x14)) 18)) (?v_25 (< (+ (- (* 13 x40) (* 15 x12)) (* 13 x2)) 11)) (?v_71 (* 7 x18)) (?v_34 (* 16 x49)) (?v_123 (distinct (+ (- (* 14 x27) (* 3 x18)) (* 11 x41)) 3)) (?v_93 (<= (- (- (* 18 x5) (* 18 x26)) (* 8 x24)) 24)) (?v_86 (<= (+ (- (* 5 x14) (* 11 x2)) (* 7 x49)) 1)) (?v_245 (<= (- (+ (* 2 x43) (* 12 x26)) (* 14 x29)) 4)) (?v_114 (= x35 (f0_2 x17 x24))) (?v_22 (= x29 (f0_2 x24 x1))) (?v_90 (f0_1 x0))) (let ((?v_161 (distinct ?v_90 (f0_2 x30 x28))) (?v_211 (distinct x20 (f0_2 x20 x17))) (?v_55 (distinct (f0_1 x18) x37)) (?v_96 (= x46 x21)) (?v_68 (= (f0_2 x8 x8) x7)) (?v_87 (= x19 x35)) (?v_153 (distinct (f0_1 x45) x1)) (?v_59 (distinct (f0_1 x27) x8)) (?v_209 (= (f0_1 x5) x40)) (?v_201 (= (f0_1 x6) x24)) (?v_159 (distinct (f0_2 x34 x30) x20)) (?v_2 (= (f0_1 x37) x45)) (?v_219 (distinct x44 x33)) (?v_16 (= (f0_2 x22 x1) (f0_2 x33 x47))) (?v_17 (distinct (f0_2 x10 x2) (f0_1 x13))) (?v_64 (f0_2 x14 x10))) (let ((?v_101 (= x16 ?v_64)) (?v_200 (= (f0_2 x13 x6) (f0_1 x35))) (?v_46 (= x2 (f0_2 x19 x10))) (?v_105 (distinct (f0_2 x38 x49) (f0_2 x25 x43))) (?v_19 (= (f0_2 x12 x44) x16)) (?v_18 (distinct x38 x43)) (?v_179 (= (f0_2 x44 x42) x22)) (?v_79 (= x6 (f0_2 x39 x22))) (?v_89 (distinct (f0_1 x31) (f0_2 x2 x48))) (?v_35 (f0_1 x40))) (let ((?v_73 (distinct (f0_1 x49) ?v_35)) (?v_108 (distinct (f0_2 x25 x26) (f0_1 x10))) (?v_248 (= x23 x13)) (?v_37 (distinct (f0_2 x28 x19) (f0_2 x40 x33))) (?v_10 (distinct (f0_2 x16 x42) x10)) (?v_136 (distinct x5 (f0_2 x3 x45))) (?v_32 (distinct (f0_2 x14 x43) (f0_2 x43 x25))) (?v_3 (distinct (f0_1 x30) x35)) (?v_174 (= (f0_1 x29) (f0_2 x36 x19))) (?v_20 (distinct (f0_2 x18 x42) x41)) (?v_95 (distinct x17 x40)) (?v_250 (distinct (f0_1 x12) x6)) (?v_103 (distinct (f0_2 x24 x28) x33)) (?v_116 (distinct ?v_64 x0)) (?v_21 (= ?v_90 x2)) (?v_128 (distinct x20 x10)) (?v_42 (= (f0_1 x39) x12)) (?v_176 (= (f0_2 x5 x43) (f0_1 x48))) (?v_28 (distinct x48 x0)) (?v_98 (= x1 ?v_35)) (?v_30 (= x48 (f0_1 x15))) (?v_125 (distinct x42 (f0_2 x3 x42)))) (let ((?v_0 (not ?v_10)) (?v_167 (not P7)) (?v_1 (not ?v_174)) (?v_4 (not P2)) (?v_210 (not P37)) (?v_6 (not ?v_102)) (?v_120 (not ?v_18)) (?v_76 (not P20)) (?v_58 (not ?v_89)) (?v_168 (not P10)) (?v_7 (not P41)) (?v_113 (not ?v_101)) (?v_133 (not P22)) (?v_138 (not P47)) (?v_104 (not P34)) (?v_214 (not ?v_176)) (?v_11 (not ?v_114)) (?v_91 (not ?v_17)) (?v_13 (not P23)) (?v_62 (not ?v_209)) (?v_65 (not ?v_3)) (?v_33 (not P33)) (?v_115 (not P42)) (?v_26 (not ?v_28)) (?v_183 (not P15)) (?v_36 (not P43)) (?v_119 (not ?v_125)) (?v_72 (not ?v_37)) (?v_207 (not P19)) (?v_235 (not ?v_2)) (?v_169 (not ?v_25)) (?v_97 (not P45)) (?v_148 (not ?v_16)) (?v_48 (not P21)) (?v_158 (not ?v_73)) (?v_212 (not (distinct x45 x49))) (?v_107 (not ?v_19)) (?v_227 (not ?v_21)) (?v_131 (not ?v_22)) (?v_122 (not P46)) (?v_85 (not ?v_55)) (?v_189 (not P16)) (?v_83 (not P13)) (?v_112 (not ?v_68)) (?v_208 (not ?v_42)) (?v_47 (not P32)) (?v_140 (not P48)) (?v_52 (not ?v_32)) (?v_197 (not P12)) (?v_129 (not P14)) (?v_57 (not P36)) (?v_144 (not P35)) (?v_184 (not ?v_96)) (?v_61 (not ?v_79)) (?v_186 (not ?v_95)) (?v_54 (not P0)) (?v_240 (not P27)) (?v_251 (not ?v_200)) (?v_154 (not ?v_93)) (?v_225 (not P26)) (?v_66 (not ?v_116)) (?v_117 (not ?v_46)) (?v_99 (not ?v_31)) (?v_194 (not P17)) (?v_234 (not ?v_15)) (?v_82 (not P1)) (?v_177 (not ?v_179)) (?v_163 (not P3)) (?v_100 (not P38)) (?v_106 (not ?v_30)) (?v_175 (not P30)) (?v_172 (not P8)) (?v_243 (not ?v_98)) (?v_118 (not P40)) (?v_124 (not P11)) (?v_226 (not P4)) (?v_255 (not ?v_136)) (?v_155 (not ?v_108)) (?v_139 (not ?v_180)) (?v_196 (not P18)) (?v_206 (not ?v_20)) (?v_185 (not P28)) (?v_156 (not ?v_59)) (?v_166 (not P5)) (?v_142 (not P31)) (?v_146 (not P9)) (?v_213 (not ?v_219)) (?v_181 (not (= x6 (f0_2 x46 x5)))) (?v_203 (not ?v_245)) (?v_224 (not ?v_153)) (?v_160 (not P25)) (?v_195 (not ?v_159)) (?v_246 (not P6)) (?v_204 (not ?v_103)) (?v_244 (not ?v_87)) (?v_239 (not ?v_161)) (?v_237 (not P39))) (let ((?v_242 (or ?v_36 P24)) (?v_241 (not ?v_86)) (?v_205 (not ?v_201)) (?v_216 (not P24)) (?v_232 (not P44)) (?v_215 (not ?v_105)) (?v_221 (not ?v_123)) (?v_228 (not ?v_250)) (?v_252 (not P49)) (?v_236 (not ?v_211)) (?v_249 (not P29)) (?v_253 (not ?v_248)) (?v_23 (distinct (+ (* 18 x47) (* 9 x21) (* 9 x40)) 3)) (?v_45 (< (- (+ (* 24 x22) x19) (* 22 x37)) 24)) (?v_63 (< (+ (* 18 x10) (* 13 x8)) 19)) (?v_60 (< (- (- 0 (* 4 x35)) (* 11 x28)) 25)) (?v_217 (<= (- (- 0 (* 16 x40)) (* 7 x9)) 24))) (let ((?v_43 (not ?v_217)) (?v_132 (not ?v_45)) (?v_198 (not ?v_63)) (?v_75 (not ?v_23)) (?v_109 (distinct (+ (* 23 x8) (* 4 x41) (* 4 x16)) 3))) (let ((?v_230 (not ?v_109)) (?v_187 (not ?v_60)) (?v_88 (<= (+ (* (- 23) x41) (* 24 x3) (* 23 x19)) (- 25)))) (let ((?v_231 (not ?v_88)) (?v_127 (< (+ (* (- 2) x35) (* 15 x30) (* 25 x29)) 14))) (let ((?v_50 (not ?v_127)) (?v_38 (<= (- (+ (* (- 5) x42) (* 13 x39)) (* 6 x41)) (- 19)))) (let ((?v_9 (not ?v_38)) (?v_14 (= (+ (* (- 12) x29) (* 19 x20) (* 16 x28)) 3))) (let ((?v_229 (not ?v_14)) (?v_69 (< (+ (- (* (- 21) x12) ?v_71) (* 3 x14)) 9))) (let ((?v_8 (not ?v_69)) (?v_92 (<= (- (* (- 19) x45) (* 16 x42)) (- 1)))) (let ((?v_199 (not ?v_92)) (?v_5 (< (- (+ (* (- 15) x4) ?v_39) (* 14 x44)) (- 19))) (?v_80 (< (+ (* (- 4) x19) (* 3 x13) x21) 18))) (let ((?v_171 (not ?v_80)) (?v_188 (not ?v_5)) (?v_162 (<= (- (+ (* 8 x41) (* 5 x8)) ?v_34) (- 28)))) (let ((?v_94 (not ?v_162)) (?v_77 (< (+ (- (* 11 x1) (* 4 x22)) (* 22 x19)) (- 6)))) (let ((?v_150 (not ?v_77)) (?v_24 (= (- (- (* 4 x30) (* 3 x47)) (* 14 x9)) (- 22))) (?v_74 (< (- (+ (* (- 25) x6) (* 8 x18)) (* 15 x28)) (- 13)))) (let ((?v_27 (not ?v_74)) (?v_12 (<= (+ (* 19 x41) (* 23 x1) (* 23 x13)) (- 5))) (?v_121 (< (- (+ (* (- 1) x42) (* 3 x26)) (* 8 x7)) (- 29)))) (let ((?v_78 (not ?v_121)) (?v_247 (not ?v_24)) (?v_29 (< (+ (* (- 6) x16) (* 6 x12) (* 10 x9)) 11)) (?v_51 (= (+ (* 10 x35) (* 15 x10) ?v_49) (- 26))) (?v_67 (< (+ (* (- 15) x12) (* 27 x32) (* 10 x24)) 28)) (?v_40 (<= (- (- 0 (* 21 x48)) ?v_34) (- 6))) (?v_238 (<= (+ (* 14 x34) ?v_141) (- 24)))) (let ((?v_44 (not ?v_238)) (?v_111 (<= (+ (* 23 x4) ?v_39 (* 24 x45)) (- 4)))) (let ((?v_56 (not ?v_111)) (?v_41 (< (+ (- (* (- 17) x15) (* 23 x43)) (* 13 x12)) (- 4)))) (let ((?v_126 (not ?v_41)) (?v_147 (not ?v_40)) (?v_202 (<= (- (+ (* (- 4) x6) (* 12 x17)) (* 3 x49)) 4))) (let ((?v_134 (not ?v_202)) (?v_149 (< (- (+ (* (- 23) x32) (* 9 x45)) (* 27 x24)) 26)) (?v_157 (<= (- (+ (* (- 16) x45) ?v_49) (* 21 x41)) 29))) (let ((?v_53 (not ?v_157)) (?v_81 (= (+ (- (* (- 14) x7) (* 7 x8)) (* 7 x36)) 2)) (?v_193 (<= (- (+ (* 20 x18) ?v_70) (* 16 x35)) (- 24))) (?v_170 (not ?v_51)) (?v_130 (distinct (+ (* (- 13) x12) (* 13 x23) (* 17 x12)) 19))) (let ((?v_178 (not ?v_130)) (?v_218 (<= (- (- (* 24 x27) (* 26 x42)) (* 19 x17)) (- 13)))) (let ((?v_192 (not ?v_218)) (?v_84 (< (- (- (* (- 4) x33) (* 24 x24)) (* 11 x21)) (- 26))) (?v_173 (not ?v_67)) (?v_137 (<= (- (+ ?v_70 ?v_71) (* 15 x32)) (- 12)))) (let ((?v_145 (not ?v_137)) (?v_110 (not ?v_84)) (?v_191 (< (- (* (- 17) x34) (* 11 x33)) 6))) (let ((?v_135 (not ?v_191)) (?v_143 (< (* 11 x8) (- 3))) (?v_164 (<= (- (+ (* (- 4) x0) ?v_141) (* 8 x36)) (- 21)))) (let ((?v_151 (not ?v_164)) (?v_182 (not ?v_143)) (?v_190 (<= (+ (- (* (- 17) x42) (* 18 x7)) (* 20 x43)) 5))) (let ((?v_152 (not ?v_190)) (?v_254 (<= (- (- (* 27 x2) (* 7 x47)) (* 12 x43)) (- 9)))) (let ((?v_222 (not ?v_254)) (?v_165 (not ?v_149)) (?v_223 (not ?v_81)) (?v_220 (not ?v_193)) (?v_233 (not ?v_12))) (and (and (and (and (and (and (and (and (and (and (and (and (and (and (and (and (and (and (and (and (and (and (and (and (and (and (and (and (and (and (and (and (and (and (and (and (and (and (and (and (and (and (and (and (and (and (and (and (and (and (and (and (and (and (and (and (and (and (and (and (and (and (and (and (and (and (and (and (and (and (and (and (and (and (and (and (and (and (and (and (and (and (and (and (and (and (and (and (and (and (and (and (and (and (and (and (and (and (and (and (and (and (and (and (and (and (and (and (and (and (and (and (and (and (and (and (and (and (and (and (and (and (and (and (and (and (and (and (and (and (and (and (and (and (and (and (and (and (and (and (and (and (and (and (and (and (and (and (and (and (and (and (and (and (and (and (and (and (and (and (and (and (and (and (and (and (and (and (and (and (and (and (and (and (and (and (and (and (and (and (and (and (and (and (and (and (and (and (and (and (and (and (and (and (and (and (and (and (and (and (and (and (and (and (and (and (and (and (and (and (and (and (and (and (and (and (and (and (and (and (and (and (and (and (and (and (and (and (and (and (and (and (and (and (and (and (and (and (and (and (and (and (and (and (and (and (and (and (and (and (and (and (and (and (and (and (and (and (and (and (and (and (and (and (and (and (and (and (and (and (and (and (and (and (and (and (and (and (and (and (and (and (and (and (and (and (and (and (and (and (and (and (and (and (and (and (and (and (and (and (and (and (and (and (and (and (and (and (and (and (and (and (and (and (and (and (and (and (and (and (and (and (and (and (and (and (and (and (and (and (and (and (and (and (and (and (and (and (and (and (and (and (and (and (and (and (and (and (and (and (and (and (and (and (and (and (and (and (and (and (and (and (and (and (and (and (and (and (and (and (and (and (and (and (and (and (and (and (and (and (and (and (and (and (and (and (and (and (and (and (and (and (and (and (and (and (and (and (and (and (and (and (and (and (and (and (and (and (and (and (and (and (and (and (and (and (and (and (and (and (and (and (and (and (and (and (and (and (and (and (and (and (and (and (and (and (and (and (and (and (and (and (and (and (and (and (and (and (and (and (and (and (and (and (and (and (and (and (and (and (and (and (and (and (and (and (and (and (and (and (and (and (and (and (and (and (and (and (and (and (and (and (and (and (and (and (and (and (and (and (and (and (and (and (and (and (and (and (and (and (and (and (and (and (and (and (and (and (and (and (and (and (and (and (and (and (and (and (and (and (and (and (and (and (and (and (and (and (and (and (and (and (and (and (and (and (and (and (and (and (and (and (and (and (and (and (and (and (and (and (and (and (and (and (and (and (and (and (and (and (and (and (and (and (and (and (and (and (and (and (and (and (and (and (and (and (and (and (and (and (and (and (and (and (and (and (and (and (and (and (and (and (and (and (and (and (and (and (and (or (or ?v_231 ?v_0) ?v_31) (or (or ?v_50 ?v_2) ?v_167)) (or (or ?v_1 ?v_4) ?v_9)) (or (or P36 ?v_210) ?v_229)) (or (or ?v_0 P40) ?v_6)) (or (or P5 ?v_23) ?v_120)) (or (or P5 ?v_76) ?v_1)) (or (or P11 ?v_3) ?v_87)) (or (or ?v_58 P13) ?v_8)) (or (or ?v_168 ?v_7) ?v_32)) (or (or ?v_2 ?v_199) ?v_3)) (or (or ?v_113 ?v_5) ?v_171)) (or (or ?v_45 ?v_20) ?v_133)) (or (or ?v_46 ?v_138) ?v_4)) (or (or ?v_188 ?v_104) ?v_214)) (or (or P27 ?v_6) ?v_11)) (or (or ?v_7 ?v_63) ?v_8)) (or (or P30 ?v_91) ?v_13)) (or (or ?v_62 ?v_65) ?v_33)) (or (or ?v_115 ?v_9) ?v_94)) (or (or P25 ?v_16) ?v_10)) (or (or P41 ?v_150) ?v_11)) (or (or ?v_24 ?v_4) ?v_26)) (or (or ?v_19 ?v_27) ?v_12)) (or (or ?v_183 P7) ?v_36)) (or (or ?v_128 ?v_22) ?v_12)) (or (or ?v_13 ?v_119) ?v_72)) (or (or ?v_207 ?v_235) P18)) (or (or P9 ?v_169) ?v_14)) (or (or ?v_30 ?v_97) P28)) (or (or ?v_15 ?v_15) ?v_148)) (or (or ?v_48 ?v_21) ?v_17)) (or (or ?v_158 ?v_18) ?v_60)) (or (or ?v_201 P46) ?v_0)) (or (or ?v_212 ?v_107) ?v_43)) (or (or ?v_78 ?v_20) P28)) (or (or P32 ?v_227) ?v_131)) (or (or ?v_23 ?v_247) ?v_1)) (or (or ?v_122 ?v_29) ?v_25)) (or (or ?v_85 ?v_189) ?v_153)) (or (or ?v_83 ?v_26) P9)) (or (or ?v_51 ?v_23) ?v_67)) (or (or ?v_112 ?v_59) ?v_27)) (or (or ?v_5 ?v_28) ?v_29)) (or (or P46 ?v_208) ?v_47)) (or (or ?v_140 ?v_30) ?v_31)) (or (or ?v_52 ?v_86) ?v_197)) (or (or ?v_159 ?v_129) ?v_57)) (or (or ?v_33 ?v_144) ?v_40)) (or (or ?v_20 ?v_98) P33)) (or (or ?v_33 ?v_184) ?v_36)) (or (or ?v_37 ?v_44) ?v_38)) (or (or ?v_12 ?v_61) ?v_56)) (or (or ?v_19 ?v_186) ?v_126)) (or (or ?v_147 ?v_134) ?v_41)) (or (or ?v_42 ?v_22) ?v_149)) (or (or ?v_43 ?v_44) ?v_54)) (or (or ?v_132 ?v_11) ?v_36)) (or (or ?v_46 ?v_47) ?v_48)) (or (or ?v_53 ?v_13) ?v_50)) (or (or ?v_3 ?v_51) ?v_52)) (or (or ?v_53 ?v_0) ?v_240)) (or (or ?v_54 ?v_251) ?v_55)) (or (or ?v_81 ?v_21) ?v_12)) (or (or ?v_193 ?v_56) P47)) (or (or ?v_41 ?v_154) ?v_57)) (or (or P25 ?v_225) ?v_58)) (or (or ?v_170 ?v_38) ?v_178)) (or (or ?v_192 P2) ?v_15)) (or (or ?v_5 ?v_59) ?v_60)) (or (or ?v_61 ?v_62) P30)) (or (or ?v_84 ?v_198) ?v_66)) (or (or ?v_26 ?v_22) ?v_65)) (or (or ?v_66 P35) ?v_117)) (or (or ?v_173 ?v_123) P40)) (or (or ?v_75 ?v_4) ?v_68)) (or (or ?v_32 ?v_99) ?v_69)) (or (or ?v_108 ?v_105) ?v_145)) (or (or ?v_72 ?v_1) ?v_73)) (or (or ?v_74 ?v_75) ?v_194)) (or (or P2 ?v_24) ?v_76)) (or (or ?v_234 ?v_51) ?v_77)) (or (or ?v_82 ?v_23) ?v_78)) (or (or ?v_177 ?v_79) ?v_80)) (or (or P27 ?v_163) ?v_81)) (or (or ?v_82 ?v_83) ?v_44)) (or (or P38 ?v_110) ?v_85)) (or (or ?v_86 ?v_87) ?v_80)) (or (or ?v_18 ?v_100) ?v_88)) (or (or ?v_89 ?v_161) ?v_43)) (or (or ?v_13 P33) ?v_69)) (or (or ?v_106 ?v_91) P24)) (or (or ?v_92 ?v_93) ?v_175)) (or (or ?v_94 ?v_32) P5)) (or (or ?v_37 ?v_95) ?v_109)) (or (or ?v_103 ?v_172) ?v_96)) (or (or ?v_97 ?v_36) ?v_65)) (or (or P8 ?v_243) ?v_118)) (or (or ?v_42 P25) P13)) (or (or P43 ?v_84) ?v_124)) (or (or ?v_226 ?v_99) ?v_25)) (or (or ?v_255 ?v_100) ?v_32)) (or (or ?v_101 ?v_79) ?v_15)) (or (or P33 P10) ?v_102)) (or (or ?v_103 ?v_9) P35)) (or (or ?v_104 P11) ?v_59)) (or (or ?v_105 ?v_106) ?v_107)) (or (or ?v_155 P41) P14)) (or (or ?v_72 ?v_6) ?v_109)) (or (or ?v_60 ?v_110) P10)) (or (or ?v_111 ?v_112) ?v_41)) (or (or P42 ?v_211) ?v_139)) (or (or ?v_113 ?v_114) ?v_97)) (or (or ?v_115 ?v_4) ?v_116)) (or (or ?v_107 ?v_117) ?v_118)) (or (or ?v_119 ?v_83) ?v_120)) (or (or ?v_121 P41) ?v_96)) (or (or ?v_122 ?v_76) ?v_196)) (or (or ?v_97 ?v_123) P47)) (or (or ?v_100 ?v_124) ?v_114)) (or (or ?v_125 ?v_10) P45)) (or (or ?v_126 ?v_135) P31)) (or (or ?v_206 P37) ?v_15)) (or (or ?v_122 ?v_127) ?v_44)) (or (or ?v_185 (not ?v_128)) ?v_129)) (or (or ?v_58 ?v_122) ?v_156)) (or (or ?v_166 P42) P39)) (or (or ?v_36 ?v_26) ?v_130)) (or (or ?v_131 ?v_132) P7)) (or (or ?v_142 ?v_45) ?v_22)) (or (or ?v_22 ?v_26) ?v_54)) (or (or ?v_133 ?v_134) P36)) (or (or P11 ?v_143) P1)) (or (or ?v_14 P25) ?v_96)) (or (or ?v_124 ?v_118) ?v_135)) (or (or ?v_136 ?v_99) ?v_127)) (or (or ?v_79 ?v_92) P15)) (or (or ?v_5 ?v_48) ?v_137)) (or (or ?v_138 ?v_28) ?v_10)) (or (or ?v_128 ?v_41) ?v_139)) (or (or ?v_14 ?v_11) ?v_10)) (or (or P5 ?v_8) ?v_136)) (or (or ?v_42 ?v_128) ?v_140)) (or (or ?v_151 ?v_142) P22)) (or (or P46 P27) ?v_12)) (or (or ?v_146 ?v_36) ?v_120)) (or (or ?v_115 ?v_6) ?v_96)) (or (or ?v_182 ?v_5) P7)) (or (or P24 ?v_114) ?v_127)) (or (or ?v_144 P14) P41)) (or (or ?v_85 P1) ?v_145)) (or (or P24 ?v_146) ?v_111)) (or (or ?v_147 ?v_213) P14)) (or (or ?v_21 ?v_152) ?v_230)) (or (or ?v_148 ?v_181) ?v_146)) (or (or P28 ?v_222) ?v_165)) (or (or ?v_139 ?v_19) P0)) (or (or P14 ?v_92) ?v_134)) (or (or ?v_53 P26) P22)) (or (or ?v_28 ?v_150) ?v_25)) (or (or ?v_151 P8) ?v_203)) (or (or ?v_152 ?v_99) ?v_148)) (or (or ?v_109 ?v_187) P19)) (or (or P46 ?v_224) ?v_154)) (or (or ?v_155 P30) ?v_98)) (or (or ?v_156 ?v_157) ?v_158)) (or (or ?v_24 ?v_119) ?v_248)) (or (or ?v_160 ?v_87) ?v_195)) (or (or ?v_46 ?v_29) ?v_111)) (or (or ?v_77 ?v_160) P32)) (or (or P42 ?v_6) P14)) (or (or ?v_124 ?v_161) ?v_121)) (or (or ?v_162 ?v_92) ?v_65)) (or (or ?v_119 ?v_246) ?v_40)) (or (or ?v_162 ?v_67) ?v_51)) (or (or ?v_148 ?v_148) ?v_163)) (or (or P8 ?v_164) ?v_18)) (or (or ?v_109 ?v_80) ?v_131)) (or (or ?v_83 ?v_142) ?v_165)) (or (or ?v_166 ?v_12) ?v_3)) (or (or ?v_29 ?v_73) ?v_167)) (or (or P33 P29) ?v_144)) (or (or ?v_18 ?v_50) P21)) (or (or ?v_88 ?v_104) ?v_168)) (or (or ?v_101 ?v_204) ?v_25)) (or (or P20 ?v_145) ?v_169)) (or (or ?v_170 ?v_114) ?v_89)) (or (or ?v_107 ?v_78) ?v_108)) (or (or ?v_144 ?v_171) ?v_119)) (or (or ?v_22 ?v_172) ?v_73)) (or (or ?v_109 ?v_173) ?v_174)) (or (or P49 ?v_244) ?v_52)) (or (or P16 P15) ?v_6)) (or (or ?v_239 ?v_175) ?v_163)) (or (or P14 ?v_176) P40)) (or (or ?v_177 ?v_128) ?v_178)) (or (or P4 P17) P24)) (or (or ?v_120 ?v_147) ?v_129)) (or (or ?v_102 ?v_129) ?v_96)) (or (or ?v_29 ?v_171) ?v_179)) (or (or ?v_180 ?v_61) ?v_153)) (or (or ?v_37 ?v_57) ?v_181)) (or (or ?v_182 P33) ?v_183)) (or (or ?v_184 ?v_185) ?v_56)) (or (or ?v_186 ?v_187) ?v_166)) (or (or ?v_188 ?v_91) ?v_104)) (or (or ?v_189 ?v_190) ?v_79)) (or (or ?v_187 P17) ?v_59)) (or (or P48 ?v_191) ?v_17)) (or (or P5 ?v_117) ?v_57)) (or (or ?v_237 ?v_144) ?v_145)) (or (or ?v_171 ?v_168) ?v_95)) (or (or P38 ?v_160) ?v_192)) (or (or ?v_137 ?v_110) ?v_102)) (or (or ?v_127 ?v_94) ?v_112)) (or ?v_242 ?v_51)) (or (or ?v_115 ?v_24) ?v_178)) (or (or P32 P37) ?v_8)) (or (or ?v_165 ?v_193) ?v_56)) (or (or P14 ?v_194) ?v_80)) (or (or P36 ?v_26) ?v_139)) (or (or P30 ?v_99) P48)) (or (or ?v_93 ?v_144) ?v_26)) (or (or ?v_160 ?v_82) ?v_184)) (or (or ?v_143 ?v_162) P36)) (or (or ?v_185 ?v_126) ?v_195)) (or (or ?v_125 ?v_196) ?v_197)) (or (or ?v_92 ?v_241) ?v_198)) (or (or ?v_185 ?v_199) P34)) (or (or ?v_200 ?v_42) P44)) (or (or P33 P25) ?v_16)) (or (or ?v_177 ?v_5) ?v_113)) (or (or ?v_185 ?v_205) P45)) (or (or ?v_189 ?v_12) ?v_102)) (or (or P4 ?v_27) ?v_216)) (or (or ?v_189 ?v_50) P36)) (or (or ?v_94 ?v_1) ?v_93)) (or (or ?v_145 ?v_202) ?v_107)) (or (or P29 ?v_203) ?v_9)) (or (or ?v_204 P38) ?v_26)) (or (or P3 ?v_205) ?v_173)) (or (or ?v_91 ?v_94) ?v_232)) (or (or ?v_122 ?v_156) ?v_180)) (or (or P9 P22) ?v_57)) (or (or P14 ?v_206) ?v_105)) (or (or ?v_198 ?v_182) ?v_202)) (or (or P6 ?v_202) ?v_16)) (or (or ?v_112 ?v_73) ?v_184)) (or (or ?v_28 ?v_26) ?v_207)) (or (or ?v_208 ?v_207) ?v_68)) (or (or ?v_58 ?v_102) P21)) (or (or ?v_137 ?v_80) P21)) (or (or ?v_158 ?v_192) ?v_54)) (or (or ?v_32 ?v_179) ?v_133)) (or (or P19 ?v_132) ?v_79)) (or (or ?v_209 ?v_202) ?v_87)) (or (or ?v_22 ?v_202) ?v_157)) (or (or ?v_102 ?v_133) ?v_8)) (or (or ?v_156 ?v_26) ?v_10)) (or (or ?v_22 ?v_36) ?v_210)) (or (or ?v_88 ?v_154) P28)) (or (or ?v_173 ?v_86) P10)) (or (or P43 ?v_124) ?v_208)) (or (or ?v_211 P41) ?v_114)) (or (or ?v_139 ?v_162) ?v_212)) (or (or ?v_16 ?v_115) ?v_47)) (or (or ?v_135 ?v_105) ?v_158)) (or (or P24 ?v_119) ?v_26)) (or (or ?v_26 ?v_116) ?v_188)) (or (or ?v_38 P20) ?v_156)) (or (or ?v_29 ?v_207) P47)) (or (or ?v_38 ?v_50) ?v_111)) (or (or ?v_177 ?v_213) ?v_187)) (or (or ?v_74 ?v_74) P5)) (or (or ?v_205 ?v_215) P7)) (or (or ?v_214 ?v_12) ?v_47)) (or (or ?v_121 ?v_52) ?v_170)) (or (or ?v_142 P12) ?v_223)) (or (or ?v_173 P24) ?v_122)) (or (or ?v_45 ?v_67) ?v_93)) (or (or ?v_30 ?v_80) ?v_144)) (or (or ?v_42 ?v_155) P46)) (or (or ?v_127 P16) P21)) (or (or P40 ?v_167) ?v_149)) (or (or ?v_46 P28) P47)) (or (or ?v_98 ?v_59) ?v_215)) (or (or ?v_116 ?v_190) ?v_110)) (or (or ?v_83 ?v_20) P32)) (or (or ?v_200 ?v_46) ?v_185)) (or (or ?v_216 P6) ?v_217)) (or (or ?v_221 ?v_62) P49)) (or (or P17 ?v_158) ?v_20)) (or (or ?v_218 ?v_207) ?v_79)) (or (or ?v_219 ?v_56) ?v_61)) (or (or ?v_220 ?v_46) ?v_168)) (or (or ?v_59 P14) ?v_207)) (or (or P20 ?v_154) P33)) (or (or ?v_198 ?v_145) ?v_24)) (or (or ?v_57 ?v_220) ?v_118)) (or (or ?v_161 P12) ?v_209)) (or (or ?v_82 ?v_221) ?v_116)) (or (or P32 ?v_155) ?v_125)) (or (or ?v_47 P39) ?v_140)) (or (or ?v_177 ?v_136) ?v_53)) (or (or P27 ?v_8) ?v_136)) (or (or P15 ?v_216) ?v_89)) (or (or ?v_222 P21) P26)) (or (or ?v_223 ?v_12) ?v_154)) (or (or P44 ?v_38) P45)) (or (or ?v_112 ?v_123) ?v_152)) (or (or P15 P11) ?v_163)) (or (or ?v_109 ?v_123) ?v_218)) (or (or ?v_43 ?v_224) ?v_225)) (or (or P34 ?v_13) P39)) (or (or ?v_120 ?v_105) ?v_228)) (or (or ?v_179 ?v_165) ?v_153)) (or (or ?v_73 ?v_9) ?v_116)) (or (or ?v_193 ?v_130) ?v_176)) (or (or ?v_184 ?v_23) ?v_65)) (or (or ?v_59 ?v_204) P27)) (or (or ?v_171 P31) ?v_61)) (or (or ?v_160 ?v_58) ?v_23)) (or (or ?v_13 ?v_14) ?v_10)) (or (or ?v_233 ?v_213) ?v_23)) (or (or ?v_213 ?v_137) ?v_55)) (or (or ?v_112 ?v_204) ?v_223)) (or (or ?v_92 ?v_158) ?v_23)) (or (or P15 P41) ?v_160)) (or (or ?v_63 ?v_146) ?v_43)) (or (or P42 ?v_205) ?v_215)) (or (or ?v_226 ?v_73) ?v_95)) (or (or ?v_217 ?v_53) ?v_74)) (or (or ?v_207 ?v_209) ?v_227)) (or (or ?v_58 ?v_166) ?v_37)) (or (or ?v_228 P15) ?v_185)) (or (or ?v_213 ?v_181) ?v_163)) (or (or ?v_99 ?v_186) ?v_55)) (or (or ?v_214 ?v_148) ?v_91)) (or (or ?v_88 P17) ?v_229)) (or (or ?v_57 ?v_102) ?v_230)) (or (or ?v_93 ?v_188) ?v_231)) (or (or ?v_252 ?v_73) P6)) (or (or ?v_232 ?v_138) ?v_204)) (or (or P18 ?v_5) ?v_87)) (or (or ?v_164 ?v_73) ?v_18)) (or (or P35 ?v_213) ?v_150)) (or (or P28 ?v_99) ?v_38)) (or (or ?v_217 ?v_115) ?v_91)) (or (or ?v_22 ?v_189) ?v_97)) (or (or ?v_114 ?v_212) ?v_233)) (or (or ?v_234 ?v_179) P45)) (or (or ?v_131 ?v_103) ?v_121)) (or (or ?v_113 ?v_47) ?v_175)) (or (or ?v_128 ?v_113) ?v_236)) (or (or ?v_9 ?v_231) ?v_121)) (or (or ?v_194 ?v_219) ?v_151)) (or (or ?v_67 ?v_235) ?v_89)) (or (or ?v_218 P7) P6)) (or (or ?v_197 ?v_231) P45)) (or (or P40 P9) ?v_68)) (or (or ?v_118 ?v_25) ?v_167)) (or (or P8 ?v_187) ?v_147)) (or (or P47 ?v_125) P43)) (or (or P18 ?v_97) ?v_51)) (or (or ?v_63 ?v_84) ?v_189)) (or (or ?v_153 ?v_80) ?v_53)) (or (or ?v_174 ?v_221) ?v_56)) (or (or P49 ?v_139) ?v_100)) (or (or ?v_9 ?v_11) ?v_45)) (or (or ?v_130 ?v_78) ?v_79)) (or (or ?v_100 ?v_212) ?v_177)) (or (or ?v_106 P31) ?v_213)) (or (or P43 ?v_56) ?v_112)) (or (or ?v_37 ?v_236) ?v_213)) (or (or ?v_177 ?v_120) P47)) (or (or ?v_66 ?v_228) P39)) (or (or ?v_114 ?v_169) ?v_163)) (or (or ?v_235 P4) ?v_91)) (or (or P41 ?v_204) ?v_211)) (or (or ?v_224 ?v_220) ?v_143)) (or (or ?v_237 ?v_65) ?v_190)) (or (or P29 ?v_153) P41)) (or (or ?v_86 ?v_76) ?v_225)) (or (or ?v_135 P35) ?v_238)) (or (or P9 ?v_12) ?v_14)) (or (or P2 ?v_87) P29)) (or (or ?v_94 ?v_133) ?v_218)) (or (or ?v_239 ?v_60) ?v_201)) (or (or ?v_78 P12) ?v_134)) (or (or ?v_47 ?v_153) P39)) (or (or ?v_51 P47) ?v_218)) (or (or P46 ?v_83) ?v_240)) (or (or ?v_0 P49) ?v_136)) (or (or ?v_101 ?v_52) ?v_241)) (or (or P2 ?v_201) ?v_146)) (or ?v_242 ?v_222)) (or (or P14 ?v_112) ?v_207)) (or (or ?v_170 ?v_82) ?v_24)) (or (or ?v_222 ?v_200) ?v_151)) (or (or ?v_2 ?v_208) ?v_81)) (or (or P45 ?v_66) ?v_249)) (or (or P48 P3) ?v_200)) (or (or P35 P38) ?v_175)) (or (or ?v_189 ?v_37) ?v_241)) (or (or ?v_22 P12) ?v_139)) (or (or ?v_164 ?v_109) ?v_232)) (or (or ?v_164 ?v_12) ?v_243)) (or (or ?v_173 ?v_244) ?v_97)) (or (or P40 ?v_151) ?v_52)) (or (or ?v_106 ?v_82) ?v_206)) (or (or ?v_190 ?v_46) ?v_100)) (or (or P3 ?v_56) ?v_145)) (or (or ?v_149 ?v_89) ?v_80)) (or (or P12 ?v_243) ?v_178)) (or (or ?v_200 ?v_126) ?v_38)) (or (or ?v_114 ?v_205) ?v_107)) (or (or ?v_143 ?v_218) ?v_245)) (or (or ?v_216 ?v_153) ?v_168)) (or (or ?v_246 ?v_30) ?v_186)) (or (or ?v_88 ?v_175) ?v_222)) (or (or ?v_160 P16) ?v_202)) (or (or P16 ?v_247) P35)) (or (or ?v_248 ?v_179) P10)) (or (or ?v_60 ?v_184) ?v_205)) (or (or ?v_24 ?v_126) ?v_31)) (or (or ?v_27 ?v_246) ?v_87)) (or (or ?v_174 P2) ?v_181)) (or (or ?v_80 ?v_57) ?v_37)) (or (or ?v_207 ?v_227) ?v_144)) (or (or P2 ?v_120) ?v_170)) (or (or ?v_213 ?v_231) ?v_175)) (or (or ?v_189 ?v_241) ?v_132)) (or (or ?v_218 ?v_223) ?v_241)) (or (or ?v_68 ?v_157) ?v_228)) (or (or ?v_69 P18) ?v_82)) (or (or ?v_232 ?v_198) P7)) (or (or ?v_104 ?v_226) ?v_211)) (or (or ?v_213 ?v_130) P29)) (or (or ?v_93 ?v_177) ?v_213)) (or (or ?v_188 ?v_215) P11)) (or (or ?v_31 ?v_221) ?v_109)) (or (or ?v_204 ?v_234) P27)) (or (or ?v_139 ?v_156) ?v_127)) (or (or ?v_190 ?v_69) P2)) (or (or ?v_6 ?v_41) P25)) (or (or ?v_116 ?v_97) ?v_107)) (or (or ?v_79 ?v_26) ?v_68)) (or (or ?v_40 ?v_45) ?v_120)) (or (or ?v_30 ?v_168) ?v_52)) (or (or ?v_204 ?v_162) ?v_4)) (or (or P38 ?v_3) ?v_240)) (or (or ?v_18 ?v_124) P31)) (or (or ?v_100 ?v_240) ?v_67)) (or (or ?v_249 ?v_111) ?v_33)) (or (or ?v_231 ?v_164) ?v_187)) (or (or ?v_183 ?v_213) ?v_250)) (or (or ?v_118 ?v_108) P19)) (or (or ?v_69 ?v_62) ?v_187)) (or (or ?v_199 ?v_106) ?v_160)) (or (or ?v_209 ?v_211) ?v_46)) (or (or P6 ?v_41) ?v_121)) (or (or ?v_247 ?v_228) ?v_57)) (or (or ?v_75 ?v_232) ?v_164)) (or (or ?v_203 P7) ?v_152)) (or (or ?v_160 ?v_194) P33)) (or (or ?v_75 ?v_43) P18)) (or (or ?v_16 ?v_136) ?v_18)) (or (or ?v_196 ?v_237) ?v_24)) (or (or ?v_80 P22) P44)) (or (or ?v_251 ?v_80) ?v_27)) (or (or P8 P19) P40)) (or (or P15 P47) ?v_245)) (or (or ?v_244 ?v_42) ?v_253)) (or (or ?v_168 ?v_252) ?v_50)) (or (or ?v_197 ?v_224) ?v_45)) (or (or ?v_122 ?v_230) ?v_185)) (or (or ?v_148 ?v_72) ?v_1)) (or (or ?v_55 ?v_100) ?v_168)) (or (or ?v_59 P26) ?v_2)) (or (or ?v_130 ?v_253) ?v_46)) (or (or ?v_194 ?v_206) ?v_16)) (or (or ?v_53 ?v_91) ?v_32)) (or (or P30 ?v_132) ?v_213)) (or (or ?v_169 ?v_172) P6)) (or (or ?v_79 ?v_67) ?v_232)) (or (or ?v_95 ?v_12) P44)) (or (or P30 P6) ?v_68)) (or (or ?v_191 ?v_240) ?v_250)) (or (or ?v_239 ?v_153) ?v_77)) (or (or ?v_8 ?v_190) ?v_206)) (or (or ?v_117 ?v_81) ?v_23)) (or (or ?v_119 ?v_216) ?v_98)) (or (or ?v_216 ?v_139) ?v_61)) (or (or ?v_147 P21) ?v_167)) (or (or ?v_28 ?v_251) ?v_177)) (or (or ?v_50 ?v_243) ?v_76)) (or (or ?v_29 ?v_118) ?v_173)) (or (or ?v_207 ?v_115) ?v_106)) (or (or P22 ?v_156) ?v_4)) (or (or ?v_189 P34) ?v_107)) (or (or ?v_231 ?v_6) P47)) (or (or ?v_2 ?v_246) P13)) (or (or P22 ?v_28) ?v_205)) (or (or ?v_183 ?v_52) ?v_16)) (or (or ?v_226 ?v_188) P13)) (or (or ?v_11 ?v_181) ?v_143)) (or (or ?v_160 ?v_62) ?v_158)) (or (or ?v_169 ?v_184) P21)) (or (or ?v_149 P37) ?v_226)) (or (or ?v_0 ?v_248) P28)) (or (or ?v_146 ?v_226) ?v_142)) (or (or ?v_254 ?v_168) ?v_83)) (or (or ?v_65 P32) ?v_117)) (or (or ?v_97 ?v_162) ?v_132)) (or (or ?v_207 ?v_236) ?v_163)) (or (or ?v_8 ?v_36) ?v_120)) (or (or ?v_117 ?v_5) ?v_222)) (or (or ?v_48 ?v_102) ?v_111)) (or (or ?v_50 ?v_36) ?v_130)) (or (or ?v_65 ?v_212) ?v_73)) (or (or ?v_120 ?v_67) P19)) (or (or ?v_40 ?v_224) ?v_214)) (or (or ?v_255 ?v_177) ?v_228)) (or (or ?v_195 ?v_43) ?v_97)) (or (or ?v_176 ?v_30) ?v_225)) (or (or ?v_9 ?v_189) ?v_31)) (or (or ?v_63 ?v_6) P24)) (or (or ?v_42 ?v_114) ?v_18)) (or (or ?v_157 ?v_233) ?v_206)) (or (or ?v_251 ?v_109) ?v_166)) (or (or P45 P38) ?v_180)) (or (or ?v_115 ?v_215) ?v_46)) (or (or ?v_197 ?v_73) ?v_171)) (or (or ?v_14 ?v_186) ?v_30)) (or (or ?v_124 ?v_145) P22)) (or (or ?v_83 ?v_38) ?v_153)) (or (or ?v_190 ?v_119) ?v_54)) (or (or (not ?v_29) ?v_221) ?v_46)) (or (or ?v_23 ?v_32) ?v_236)) (or (or P35 ?v_28) P36)) (or (or ?v_240 P37) P28)) (or (or ?v_168 P45) ?v_2)) (or (or P36 ?v_238) ?v_96)) (or (or ?v_47 P21) ?v_195)) (or (or P27 ?v_214) ?v_57)) (or (or ?v_163 ?v_26) ?v_107)) (or (or ?v_94 ?v_204) ?v_57)) (or (or ?v_91 ?v_50) ?v_178)) (or (or ?v_186 P42) ?v_127)) (or (or ?v_191 ?v_181) ?v_138)) (or (or ?v_62 ?v_143) ?v_26)) (or (or P42 ?v_199) ?v_61)) (or (or ?v_3 P38) ?v_104)) (or (or P2 ?v_100) P15)) (or (or ?v_186 ?v_248) ?v_158)) (or (or ?v_205 ?v_38) ?v_181)) (or (or ?v_154 ?v_22) ?v_125)) (or (or ?v_3 ?v_108) ?v_51)) (or (or ?v_214 ?v_207) ?v_87)) (or (or ?v_107 ?v_213) ?v_199)) (or (or ?v_186 ?v_159) ?v_227)) (or (or ?v_118 ?v_151) ?v_78)) (or (or ?v_161 ?v_61) ?v_11)) (or (or ?v_138 ?v_80) P7)) (or (or ?v_153 ?v_109) P18)) (or (or ?v_155 P5) ?v_32)) (or (or ?v_175 ?v_17) ?v_238)) (or (or ?v_30 ?v_185) ?v_2)) (or (or ?v_250 ?v_81) P49)) (or (or P5 ?v_55) ?v_187)) (or (or ?v_92 ?v_202) ?v_171)) (or (or ?v_32 ?v_180) ?v_162)) (or (or ?v_63 ?v_205) ?v_95)) (or (or ?v_41 ?v_28) ?v_93)) (or (or P47 P34) P42)) (or (or ?v_222 ?v_179) ?v_142)) (or (or ?v_69 ?v_129) ?v_16)) (or (or ?v_252 ?v_129) ?v_214)) (or (or ?v_110 ?v_104) ?v_189)) (or (or ?v_253 ?v_72) ?v_216)) (or (or ?v_6 ?v_97) ?v_223)) (or (or ?v_241 ?v_59) ?v_187)) (or (or ?v_12 P45) ?v_183)) (or (or ?v_209 ?v_174) ?v_214)) (or (or ?v_114 ?v_126) ?v_118)) (or (or ?v_19 ?v_32) ?v_173)) (or (or ?v_251 ?v_85) ?v_5)) (or (or ?v_29 ?v_181) P17)) (or (or ?v_167 P32) P46)) (or (or P3 ?v_250) ?v_30)) (or (or P38 ?v_189) ?v_61)) (or (or ?v_95 ?v_67) ?v_11)) (or (or ?v_6 P19) ?v_58)) (or (or ?v_107 ?v_157) P46)) (or (or ?v_156 P42) ?v_174)) (or (or ?v_55 ?v_52) P48)) (or (or ?v_218 ?v_29) ?v_41)) (or (or ?v_231 ?v_154) ?v_32)) (or (or ?v_210 ?v_243) ?v_21)) (or (or P17 ?v_154) ?v_188))))))))))))))))))))))))))))))))))
(check-sat)
(exit)
